networks/zoo_46_405/standard/zoo_46_405.sol
<?xml version = "1.0" encoding="UTF-8" standalone="yes"?>
<CPLEXSolution version="1.2">
 <header
   problemName="networks/zoo_46_405/zoo_46_405.lp"
   solutionName="incumbent"
   solutionIndex="-1"
   objectiveValue="22"
   solutionTypeValue="3"
   solutionTypeString="primal"
   solutionStatusValue="101"
   solutionStatusString="integer optimal solution"
   solutionMethodString="mip"
   primalFeasible="1"
   dualFeasible="1"
   MIPNodes="0"
   MIPIterations="1366"
   writeLevel="3"/>
 <quality
   epInt="1.0000000000000001e-05"
   epRHS="9.9999999999999995e-07"
   maxIntInfeas="0"
   maxPrimalInfeas="0"
   maxX="4"
   maxSlack="10"/>
 <variables>
  <variable name="Y(8,14)" index="328" value="1"/>
  <variable name="Y(12,18)" index="512" value="1"/>
  <variable name="Y(14,23)" index="607" value="1"/>
  <variable name="Y(24,12)" index="1046" value="1"/>
  <variable name="Y(42,11)" index="1855" value="1"/>
  <variable name="Y(43,13)" index="1902" value="1"/>
  <variable name="Y(45,15)" index="1994" value="1"/>
  <variable name="Y(77,8)" index="3427" value="1"/>
  <variable name="Y(83,16)" index="3705" value="1"/>
  <variable name="Y(157,20)" index="7039" value="1"/>
  <variable name="Y(178,1)" index="7965" value="1"/>
  <variable name="Y(182,6)" index="8150" value="1"/>
  <variable name="Y(213,22)" index="9561" value="1"/>
  <variable name="Y(228,17)" index="10231" value="1"/>
  <variable name="Y(237,4)" index="10623" value="1"/>
  <variable name="Y(330,2)" index="14806" value="1"/>
  <variable name="Y(331,3)" index="14852" value="1"/>
  <variable name="Y(333,5)" index="14944" value="1"/>
  <variable name="Y(346,21)" index="15545" value="1"/>
  <variable name="Y(383,19)" index="17208" value="1"/>
  <variable name="Y(392,7)" index="17601" value="1"/>
  <variable name="Y(394,9)" index="17693" value="1"/>
  <variable name="X(1,2,330)" index="18554" value="1"/>
  <variable name="X(1,4,237)" index="18866" value="1"/>
  <variable name="X(1,24,178)" index="19212" value="1"/>
  <variable name="X(2,1,178)" index="19617" value="1"/>
  <variable name="X(2,7,333)" index="20177" value="1"/>
  <variable name="X(2,25,330)" index="20579" value="1"/>
  <variable name="X(3,4,330)" index="20984" value="1"/>
  <variable name="X(3,22,157)" index="21216" value="1"/>
  <variable name="X(3,26,331)" index="21795" value="1"/>
  <variable name="X(4,1,330)" index="22199" value="1"/>
  <variable name="X(4,3,157)" index="22431" value="1"/>
  <variable name="X(4,27,237)" index="22916" value="1"/>
  <variable name="X(5,8,77)" index="23161" value="1"/>
  <variable name="X(5,28,333)" index="23822" value="1"/>
  <variable name="X(6,8,392)" index="24286" value="1"/>
  <variable name="X(6,9,43)" index="24342" value="1"/>
  <variable name="X(6,29,182)" index="24886" value="1"/>
  <variable name="X(7,2,178)" index="25287" value="1"/>
  <variable name="X(7,8,333)" index="25847" value="1"/>
  <variable name="X(7,30,392)" index="26311" value="1"/>
  <variable name="X(8,5,333)" index="26657" value="1"/>
  <variable name="X(8,6,43)" index="26772" value="1"/>
  <variable name="X(8,7,392)" index="27526" value="1"/>
  <variable name="X(8,31,77)" index="27616" value="1"/>
  <variable name="X(9,6,182)" index="28126" value="1"/>
  <variable name="X(9,10,43)" index="28392" value="1"/>
  <variable name="X(9,11,42)" index="28796" value="1"/>
  <variable name="X(9,12,24)" index="29183" value="1"/>
  <variable name="X(9,32,394)" index="29958" value="1"/>
  <variable name="X(10,9,394)" index="30363" value="1"/>
  <variable name="X(10,13,43)" index="30417" value="1"/>
  <variable name="X(11,34,42)" index="30821" value="1"/>
  <variable name="X(12,9,182)" index="31366" value="1"/>
  <variable name="X(12,35,24)" index="31613" value="1"/>
  <variable name="X(13,10,394)" index="32388" value="1"/>
  <variable name="X(13,15,8)" index="32407" value="1"/>
  <variable name="X(13,36,43)" index="32847" value="1"/>
  <variable name="X(14,15,45)" index="33254" value="1"/>
  <variable name="X(14,23,83)" index="33697" value="1"/>
  <variable name="X(14,37,8)" index="34027" value="1"/>
  <variable name="X(15,13,394)" index="34818" value="1"/>
  <variable name="X(15,14,8)" index="34837" value="1"/>
  <variable name="X(15,38,45)" index="35279" value="1"/>
  <variable name="X(16,17,228)" index="35867" value="1"/>
  <variable name="X(16,23,14)" index="36058" value="1"/>
  <variable name="X(16,39,83)" index="36532" value="1"/>
  <variable name="X(17,16,14)" index="36868" value="1"/>
  <variable name="X(17,18,213)" index="37472" value="1"/>
  <variable name="X(17,40,228)" index="37892" value="1"/>
  <variable name="X(18,17,14)" index="38083" value="1"/>
  <variable name="X(18,19,213)" index="38687" value="1"/>
  <variable name="X(18,41,12)" index="38891" value="1"/>
  <variable name="X(19,18,12)" index="39296" value="1"/>
  <variable name="X(19,21,213)" index="39902" value="1"/>
  <variable name="X(19,42,383)" index="40477" value="1"/>
  <variable name="X(20,21,346)" index="40845" value="1"/>
  <variable name="X(20,22,331)" index="41235" value="1"/>
  <variable name="X(20,43,157)" index="41466" value="1"/>
  <variable name="X(21,19,383)" index="42097" value="1"/>
  <variable name="X(21,22,213)" index="42332" value="1"/>
  <variable name="X(21,44,346)" index="42870" value="1"/>
  <variable name="X(22,3,331)" index="43260" value="1"/>
  <variable name="X(22,20,157)" index="43491" value="1"/>
  <variable name="X(22,21,383)" index="44122" value="1"/>
  <variable name="X(22,45,213)" index="44357" value="1"/>
  <variable name="X(23,14,45)" index="44594" value="1"/>
  <variable name="X(23,16,83)" index="45037" value="1"/>
  <variable name="X(23,46,14)" index="45373" value="1"/>
  <variable name="C(8,15)" index="45804" value="1"/>
  <variable name="C(8,14)" index="45805" value="2"/>
  <variable name="C(12,18)" index="45838" value="1"/>
  <variable name="C(14,17)" index="45850" value="1"/>
  <variable name="C(14,16)" index="45851" value="2"/>
  <variable name="C(14,23)" index="45852" value="3"/>
  <variable name="C(24,12)" index="45891" value="1"/>
  <variable name="C(42,11)" index="46014" value="1"/>
  <variable name="C(43,6)" index="46021" value="1"/>
  <variable name="C(43,9)" index="46022" value="2"/>
  <variable name="C(43,10)" index="46023" value="3"/>
  <variable name="C(43,13)" index="46024" value="4"/>
  <variable name="C(45,14)" index="46042" value="1"/>
  <variable name="C(45,15)" index="46043" value="2"/>
  <variable name="C(77,8)" index="46223" value="1"/>
  <variable name="C(83,23)" index="46262" value="1"/>
  <variable name="C(83,16)" index="46263" value="2"/>
  <variable name="C(157,3)" index="46695" value="1"/>
  <variable name="C(157,22)" index="46696" value="2"/>
  <variable name="C(157,20)" index="46697" value="3"/>
  <variable name="C(178,2)" index="46820" value="1"/>
  <variable name="C(178,1)" index="46821" value="2"/>
  <variable name="C(182,9)" index="46846" value="1"/>
  <variable name="C(182,6)" index="46847" value="2"/>
  <variable name="C(213,18)" index="47033" value="1"/>
  <variable name="C(213,19)" index="47034" value="2"/>
  <variable name="C(213,21)" index="47035" value="3"/>
  <variable name="C(213,22)" index="47036" value="4"/>
  <variable name="C(228,17)" index="47130" value="1"/>
  <variable name="C(237,4)" index="47195" value="1"/>
  <variable name="C(330,4)" index="47774" value="1"/>
  <variable name="C(330,1)" index="47775" value="2"/>
  <variable name="C(330,2)" index="47776" value="3"/>
  <variable name="C(331,22)" index="47778" value="1"/>
  <variable name="C(331,3)" index="47779" value="2"/>
  <variable name="C(333,7)" index="47790" value="1"/>
  <variable name="C(333,8)" index="47791" value="2"/>
  <variable name="C(333,5)" index="47792" value="3"/>
  <variable name="C(346,20)" index="47883" value="3"/>
  <variable name="C(346,21)" index="47884" value="4"/>
  <variable name="C(383,21)" index="48116" value="1"/>
  <variable name="C(383,19)" index="48117" value="2"/>
  <variable name="C(392,8)" index="48187" value="1"/>
  <variable name="C(392,7)" index="48188" value="2"/>
  <variable name="C(394,13)" index="48200" value="1"/>
  <variable name="C(394,10)" index="48201" value="2"/>
  <variable name="C(394,9)" index="48202" value="3"/>
 </variables>
</CPLEXSolution>
